p cnf 12 50 
12 -6 3 0
-1 -10 -7 0
-11 8 -12 0
-12 -6 -11 0
10 -5 -6 0
4 -8 -3 0
2 4 -10 0
1 8 -11 0
12 6 9 0
4 8 -9 0
-6 -1 -11 0
-10 3 8 0
-2 3 -7 0
-10 -8 3 0
-9 12 -3 0
-7 -4 -12 0
11 -9 8 0
2 -1 -11 0
-11 8 -6 0
5 -3 12 0
-9 -11 -8 0
4 9 3 0
1 3 11 0
8 10 3 0
-7 5 10 0
-2 -11 -1 0
-8 3 4 0
7 -2 11 0
-4 -6 -8 0
2 4 -8 0
8 -4 -1 0
-11 9 -5 0
5 12 -11 0
10 12 6 0
3 9 5 0
-8 5 2 0
10 2 -12 0
-10 12 -9 0
-3 -10 -12 0
5 -12 -9 0
-1 -5 -9 0
9 -5 -1 0
4 6 11 0
-1 -12 8 0
-1 -11 3 0
-6 -12 11 0
-4 -6 11 0
-5 -1 -2 0
12 -10 -1 0
-6 -10 -4 0
